c This is QMaxSAT 2017 based on 14.07
c This is Glucose 3.0
c This is MiniSat 2.2.0
c WARNING: for repeatability, setting FPU to use double precision
c card = mrwto, comp = 0, pmodel = 0, narr = 6, mct = 52, verb = 0
cr firstCPXsol 0 0 0
c top = 1525567
c |  Number of variables:    6498                                             |
c |  Number of clauses:      335847                                           |
c |  Weight of hard clauses: 1525567                                          |
c |  Number of soft clauses: 18972                                            |
c |  Number of unit soft clauses: 0                                           |
c |  Maximum Cardinality (by unit): 10447176     (0           )               |
c last restart ## conflicts  :  0 219 
o 6309 | cpuTime 0.040984 s
c Sum of weights = 1741196
c A number of soft clauses remained = 3162
c MRWTO encoding for Pseudo-Boolean Constraints
c sizeMax=6309
c No.0 Divisor=9	generated by pow1
c No.1 Divisor=9	generated by pow1
c No.2 Divisor=9	generated by pow1
c No.3 Divisor=9	generated by pow1
c p0= 9	p1= 9	p2= 9	p3= 9	
c number of digits = 5
c linkingVar[0].size = 9, linkingVar[1].size = 9, linkingVar[2].size = 9, linkingVar[3].size = 9, linkingVar[4].size = 1, 
c Pseudo-Boolean Constraints: 81514 variables and 673002 clauses
c Sum of weights = 1741196
c A number of soft clauses remained = 3162
c MRWTO encoding for Pseudo-Boolean Constraints
c sizeMax=6309
c No.0 Divisor=9	generated by pow1
c No.1 Divisor=9	generated by pow1
c No.2 Divisor=9	generated by pow1
c No.3 Divisor=9	generated by pow1
c p0= 9	p1= 9	p2= 9	p3= 9	
c number of digits = 5
c linkingVar[0].size = 9, linkingVar[1].size = 9, linkingVar[2].size = 9, linkingVar[3].size = 9, linkingVar[4].size = 1, 
c Pseudo-Boolean Constraints: 81514 variables and 673002 clauses
c Sum of weights = 1741196
c A number of soft clauses remained = 3162
c MRWTO encoding for Pseudo-Boolean Constraints
c sizeMax=6309
c No.0 Divisor=9	generated by pow1
c No.1 Divisor=9	generated by pow1
c No.2 Divisor=9	generated by pow1
c No.3 Divisor=9	generated by pow1
c p0= 9	p1= 9	p2= 9	p3= 9	
c number of digits = 5
c linkingVar[0].size = 9, linkingVar[1].size = 9, linkingVar[2].size = 9, linkingVar[3].size = 9, linkingVar[4].size = 1, 
c Pseudo-Boolean Constraints: 81514 variables and 673002 clauses
c Sum of weights = 1741196
c A number of soft clauses remained = 3162
c MRWTO encoding for Pseudo-Boolean Constraints
c sizeMax=6309
c No.0 Divisor=9	generated by pow1
c No.1 Divisor=9	generated by pow1
c No.2 Divisor=9	generated by pow1
c No.3 Divisor=9	generated by pow1
c p0= 9	p1= 9	p2= 9	p3= 9	
c number of digits = 5
c linkingVar[0].size = 9, linkingVar[1].size = 9, linkingVar[2].size = 9, linkingVar[3].size = 9, linkingVar[4].size = 1, 
c Pseudo-Boolean Constraints: 81514 variables and 673002 clauses
c Sum of weights = 1741196
c A number of soft clauses remained = 3162
c MRWTO encoding for Pseudo-Boolean Constraints
c sizeMax=6309
c No.0 Divisor=9	generated by pow1
c No.1 Divisor=9	generated by pow1
c No.2 Divisor=9	generated by pow1
c No.3 Divisor=9	generated by pow1
c p0= 9	p1= 9	p2= 9	p3= 9	
c number of digits = 5
c linkingVar[0].size = 9, linkingVar[1].size = 9, linkingVar[2].size = 9, linkingVar[3].size = 9, linkingVar[4].size = 1, 
c Pseudo-Boolean Constraints: 81514 variables and 673002 clauses
c Sum of weights = 1741196
c A number of soft clauses remained = 3162
c MRWTO encoding for Pseudo-Boolean Constraints
c sizeMax=6309
c No.0 Divisor=9	generated by pow1
c No.1 Divisor=9	generated by pow1
c No.2 Divisor=9	generated by pow1
c No.3 Divisor=9	generated by pow1
c p0= 9	p1= 9	p2= 9	p3= 9	
c number of digits = 5
c linkingVar[0].size = 9, linkingVar[1].size = 9, linkingVar[2].size = 9, linkingVar[3].size = 9, linkingVar[4].size = 1, 
c Pseudo-Boolean Constraints: 81514 variables and 673002 clauses
c last restart ## conflicts  :  716 10575 
o 5769 | cpuTime 32.5221 s
c last restart ## conflicts  :  518 7890 
o 5131 | cpuTime 268.799 s
c last restart ## conflicts  :  259 8941 
o 4721 | cpuTime 2842.04 s
s UNKNOWN
c Search is stopped by a limit (maybe time-limit)
cr positiVarArr: [ | 10(1->5) | 64(1->2) | 166(1->47) | 227(1->51) | 269(1->36) | 332(1->42) | 354(2->7) | 422(3->18) | 460(4->1) | 532(5->14) | 575(6->1) | 653(7->21) | 698(8->9) | 747(9->1) | 822(10->19) | 864(11->4) | 960(12->43) | 1024(13->50) | 1059(14->28) | 1122(15->34) | 1165(16->20) | 1233(17->31) | 1285(18->26) | 1312(19->1) | 1417(20->44) | 1447(21->17) | 1536(22->49) | 1576(23->32) | 1616(24->15) | 1704(25->46) | 1742(26->27) | 1802(27->30) | 1854(28->25) | 1931(29->45) | 1951(30->8) | 2022(31->22) | 2090(32->33) | 2120(33->6) | 2208(34->37) | 2225(35->1) | 2326(36->41) | 2380(37->38) | 2447(38->48) | 2491(39->35) | 2552(40->39) | 2582(41->12) | 2630(42->3) | 2708(43->24) | 2739(44->1) | 2809(45->11) | 2871(46->16) | 2964(47->52) | 3009(48->40) | 3036(49->10) | 3106(50->23) | 3169(51->29) | 3210(52->13) | ]
cr the 1-th chain: [ 1->5->14->28->25->46->16->20->44->1 ] (#non-depot=8) {#cumul.=9}
cr the 2-th chain: [ 1->2->7->21->17->31->22->49->10->19->1 ] (#non-depot=9) {#cumul.=18}
cr the 3-th chain: [ 1->47->52->13->50->23->32->33->6->1 ] (#non-depot=8) {#cumul.=26}
cr the 4-th chain: [ 1->51->29->45->11->4->1 ] (#non-depot=5) {#cumul.=31}
cr the 5-th chain: [ 1->36->41->12->43->24->15->34->37->38->48->40->39->35->1 ] (#non-depot=13) {#cumul.=44}
cr the 6-th chain: [ 1->42->3->18->26->27->30->8->9->1 ] (#non-depot=8) {#cumul.=52}
c Latest Answer = 0 by 4 loops
c restarts              : 44849
c conflicts             : 10481435       (2915 /sec)
c decisions             : 115292240      (0.00 % random) (32068 /sec)
c propagations          : 35222369367    (9797028 /sec)
c conflict literals     : 1070979104     (25.90 % deleted)
c Memory used           : 837.00 MB
c CPU time              : 3595.21 s
